(declare-const X String)
; Stablecmemailyxegtd\x2fefcwgUin=PromulGate
(assert (str.in_re X (str.to_re "Stablecmemailyxegtd/efcwgUin=PromulGate\u{a}")))
; ^UA-\d+-\d+$
(assert (str.in_re X (re.++ (str.to_re "UA-") (re.+ (re.range "0" "9")) (str.to_re "-") (re.+ (re.range "0" "9")) (str.to_re "\u{a}"))))
; www\.thecommunicator\.net\d+http\x3A\x2F\x2Ftv\x2Eseekmo\x2Ecom\x2Fshowme\x2Easpx\x3Fkeyword=
(assert (not (str.in_re X (re.++ (str.to_re "www.thecommunicator.net") (re.+ (re.range "0" "9")) (str.to_re "http://tv.seekmo.com/showme.aspx?keyword=\u{a}")))))
; \.fcgi[^\n\r]*Host\x3A\s\x5D\x2520\x5BPort_NETObserveTM_SEARCH3
(assert (not (str.in_re X (re.++ (str.to_re ".fcgi") (re.* (re.union (str.to_re "\u{a}") (str.to_re "\u{d}"))) (str.to_re "Host:") (re.union (str.to_re " ") (str.to_re "\u{9}") (str.to_re "\u{a}") (str.to_re "\u{c}") (str.to_re "\u{d}")) (str.to_re "]%20[Port_NETObserveTM_SEARCH3\u{a}")))))
(check-sat)
